5 5
0 80 4 45 3 58 2 47 1 66
0 52 3 36 4 1 1 39 2 87
1 90 0 75 3 1 4 75 2 88
1 74 0 14 2 78 3 71 4 23
0 43 2 22 3 60 4 27 1 56
-1
0 2 3 5
0 2 5
0 1 2 3 5
0 2 3 5
0 4 5
-2
151 256 364
130 339
118 178 258 505
139 200 318
229 280

434 8
0 16 5 20 11
15 10 8 4 24
17 3 21 9 14
2 6 12 22 18
1 7 13 23 19
